
220.0
220.0
220.0
220.0
220.0
220.0
220.0
220.0
220.0
290.0
220.0
220.0
220.0
220.0
220.0
220.0
220.0
220.0
230.0
220.0
220.0
220.0
220.0
220.0
220.0
220.0
230.0
220.0
240.0
220.0
310.0
220.0
220.0
220.0
220.0
230.0
220.0
220.0
350.0
220.0
220.0
310.0
220.0
220.0
220.0
220.0
240.0
220.0
220.0
220.0